N = 6;
Capacity = 11;
Demand = [4, 9, 6, 1, 1, 10];
Distance = [|
  0, 58, 61, 18, 45, 55, 47
| 58, 0, 119, 69, 65, 77, 60
| 61, 119, 0, 54, 81, 88, 92
| 18, 69, 54, 0, 34, 72, 65
| 45, 65, 81, 34, 0, 99, 88
| 55, 77, 88, 72, 99, 0, 17
| 47, 60, 92, 65, 88, 17, 0
|];
